<number of tasks>
20

<cycle time>
1000

<order strength>
0,521


<task times>
1 331
2 354
3 561
4 607
5 607
6 438
7 600
8 423
9 741
10 590
11 544
12 717
13 496
14 533
15 287
16 455
17 356
18 469
19 450
20 420

<precedence relations>
1,5
2,4
2,6
2,7
3,7
4,8
5,10
6,9
7,10
7,11
8,14
9,12
10,13
10,14
10,16
12,16
13,15
14,17
14,18
15,19
16,19
16,20
17,19
17,20
18,20

<end>
